# Solution for model r10_t27_m5_0 Batch Number: 1
# Finished Task: 27 / 27
# Makespan: 432.0, Total Distance: 320.0, Total Time: 122.0750
# R O S F Batch
0 0 11 0.0 0.0 -1
1 1 21 0.0 0.0 -1
2 2 22 0.0 0.0 -1
3 3 17 0.0 0.0 -1
4 4 29 0.0 0.0 -1
5 5 27 0.0 0.0 -1
6 6 26 0.0 0.0 -1
7 7 10 0.0 0.0 -1
8 8 32 0.0 0.0 -1
9 9 15 0.0 0.0 -1
10 7 33 68.0 93.0 0
11 0 -1 296.0 330.0 0
12 6 -1 406.0 427.0 0
13 9 23 370.0 391.0 0
14 2 -1 399.0 432.0 0
15 9 25 218.0 240.0 0
16 7 -1 394.0 432.0 0
17 3 28 334.0 364.0 0
18 6 12 357.0 395.0 0
19 5 34 347.0 382.0 0
20 6 18 308.0 331.0 0
21 1 31 290.0 322.0 0
22 2 30 154.0 178.0 0
23 9 -1 401.0 432.0 0
24 8 -1 395.0 419.0 0
25 9 13 254.0 286.0 0
26 6 20 242.0 275.0 0
27 5 19 118.0 140.0 0
28 3 -1 364.0 387.0 0
29 4 -1 410.0 432.0 0
30 2 35 338.0 364.0 0
31 1 -1 378.0 410.0 0
32 8 36 40.0 78.0 0
33 7 16 359.0 394.0 0
34 5 -1 400.0 432.0 0
35 2 14 364.0 390.0 0
36 8 24 106.0 134.0 0
